nNurses = 155;
nHours = 33;
minHours = 3;
maxHours = 11;
maxConsec = 9;
maxPresence = 27;
demand = [37, 37, 35, 39, 34, 37, 40, 37, 32, 32, 35, 32, 34, 38, 36, 39, 34, 38, 37, 37, 39, 37, 33, 31, 35, 40, 40, 39, 39, 35, 31, 33, 29];
